c read Graph
c width = 21
c time = 423 ms
c width = 4
c time = 533 ms
c width = 4
c time = 4622 ms
s td 28 5 32
b 1 1 2 9
b 2 2 3 9 10
b 3 6 7 15 16
b 4 3 9 10 17
b 5 6 15 16 24
b 6 17 18 26 27
b 7 23 24 30 31
b 8 3 4 5 12
b 9 3 10 11 17 18
b 10 3 11 17 18 27
b 11 3 11 18 19 27
b 12 3 11 12 19 27
b 13 3 5 12 19 27
b 14 5 12 19 20 27
b 15 5 12 13 20 27
b 16 5 13 20 27 28
b 17 5 13 20 21 28
b 18 5 13 21 28 29
b 19 5 6 13 21 29
b 20 6 13 14 21 29
b 21 6 14 21 22 29
b 22 6 14 15 22 29
b 23 6 15 22 24 29
b 24 15 22 23 24 29
b 25 22 23 24 29 30
b 26 24 31 32
b 27 17 25 26
b 28 7 8 16
1 2
2 4
3 28
3 5
4 9
5 23
6 27
6 10
7 26
7 25
8 13
9 10
10 11
11 12
12 13
13 14
14 15
15 16
16 17
17 18
18 19
19 20
20 21
21 22
22 23
23 24
24 25
